Crypto/instances/phi8.cnf
p cnf 10 41
-8 5 -7 0
3 2 -4 0
-2 3 -1 0
-5 8 -6 0
4 1 -3 0
8 -6 -7 0
2 -4 -3 0
5 -6 7 0
2 4 -1 0
8 6 -7 0
-2 3 -4 0
-2 -4 -3 0
-8 6 -7 0
-5 6 -7 0
-2 3 4 0
-8 -6 5 0
-10 -9 0
-8 5 6 0
-5 -8 7 0
-8 5 7 0
-2 1 -3 0
3 2 -1 0
2 4 -3 0
5 8 0
8 6 7 0
5 6 7 0
-2 4 -3 0
5 6 -7 0
-4 1 -3 0
2 -4 1 0
8 -6 7 0
-5 8 -7 0
-5 -8 6 0
-10 9 0
-8 -6 7 0
3 4 -1 0
-4 -1 0
10 9 0
-8 6 7 0
-2 4 1 0
2 1 -3 0
